50
493
8
64
47
68
85
35
4
41
66
0 1
0 4
0 6
0 12
0 13
0 14
0 15
0 17
0 18
0 19
0 20
0 26
0 28
0 30
0 31
0 32
0 33
0 37
0 39
0 40
0 41
0 42
0 43
0 45
1 4
1 6
1 13
1 15
1 19
1 20
1 21
1 24
1 25
1 28
1 29
1 33
1 35
1 36
1 37
1 41
1 43
1 44
1 46
2 8
2 10
2 11
2 12
2 14
2 15
2 16
2 19
2 22
2 28
2 32
2 33
2 36
2 37
2 38
2 39
2 40
2 41
2 42
2 43
2 45
2 46
2 48
2 49
3 4
3 6
3 7
3 10
3 14
3 15
3 20
3 24
3 26
3 29
3 34
3 35
3 38
3 47
3 48
4 6
4 7
4 9
4 10
4 11
4 12
4 13
4 14
4 16
4 19
4 24
4 31
4 32
4 35
4 38
4 40
4 42
4 47
5 8
5 11
5 20
5 21
5 23
5 28
5 29
5 32
5 33
5 34
5 35
5 38
5 39
5 43
5 46
5 47
5 48
5 49
6 7
6 8
6 10
6 11
6 13
6 16
6 17
6 19
6 26
6 29
6 32
6 33
6 36
6 37
6 38
6 39
6 40
6 42
6 47
6 48
7 15
7 16
7 17
7 18
7 19
7 20
7 21
7 25
7 26
7 28
7 29
7 31
7 37
7 38
7 39
7 42
7 44
7 46
7 48
8 15
8 17
8 20
8 23
8 25
8 30
8 33
8 36
8 38
8 39
8 40
8 42
8 43
8 44
8 46
9 12
9 19
9 21
9 22
9 26
9 29
9 30
9 31
9 36
9 37
9 40
9 42
9 44
9 45
9 47
10 17
10 19
10 21
10 24
10 28
10 32
10 33
10 40
10 42
10 43
10 44
10 49
11 16
11 18
11 21
11 22
11 26
11 27
11 29
11 35
11 36
11 37
11 39
11 42
11 47
12 13
12 15
12 16
12 19
12 22
12 23
12 31
12 33
12 34
12 42
12 43
12 44
12 46
13 16
13 17
13 19
13 20
13 21
13 23
13 26
13 27
13 29
13 30
13 33
13 35
13 41
13 45
13 46
13 47
13 49
14 19
14 23
14 26
14 27
14 29
14 30
14 35
14 37
14 39
14 41
14 43
14 44
14 45
14 47
14 49
15 16
15 17
15 22
15 23
15 25
15 26
15 28
15 31
15 33
15 37
15 40
15 41
15 43
15 45
15 47
16 17
16 20
16 23
16 24
16 25
16 28
16 31
16 33
16 34
16 35
16 37
16 44
16 45
16 49
17 18
17 19
17 21
17 26
17 30
17 32
17 40
17 47
17 48
17 49
18 20
18 21
18 24
18 25
18 28
18 29
18 31
18 33
18 35
18 38
18 39
18 40
18 42
18 43
18 44
18 45
18 46
18 47
18 49
19 20
19 22
19 24
19 27
19 29
19 30
19 32
19 35
19 37
19 40
19 42
19 43
19 46
19 47
19 49
20 21
20 22
20 23
20 26
20 28
20 30
20 31
20 36
20 38
20 39
20 46
20 49
21 29
21 30
21 31
21 32
21 33
21 34
21 38
21 39
21 45
21 47
21 49
22 25
22 27
22 28
22 29
22 32
22 36
22 37
22 38
22 41
22 42
22 46
23 27
23 31
23 38
23 41
23 43
23 44
23 45
23 46
24 27
24 30
24 31
24 32
24 34
24 36
24 37
24 40
24 45
24 48
25 28
25 29
25 31
25 33
25 34
25 36
25 39
25 40
26 27
26 28
26 31
26 37
26 38
26 41
26 43
26 47
26 48
27 28
27 31
27 32
27 33
27 34
27 38
27 41
27 42
27 44
27 45
28 29
28 30
28 33
28 34
28 36
28 39
28 43
28 45
28 46
28 48
28 49
29 32
29 34
29 35
29 38
29 46
29 49
30 31
30 33
30 35
30 38
30 39
30 40
30 41
30 43
30 44
31 32
31 33
31 34
31 45
31 48
31 49
32 38
32 39
32 40
32 45
32 48
33 34
33 37
33 38
33 45
34 35
34 36
34 40
34 41
35 39
35 41
35 42
35 45
35 46
35 47
36 37
36 42
36 44
36 49
37 39
37 42
37 44
37 45
38 39
38 40
38 45
39 40
39 43
39 44
39 47
39 49
40 45
41 42
41 43
41 46
42 43
42 46
42 47
43 46
44 47
44 49
45 46
45 47
46 47
46 49
47 48
47 49
48 49
21 40 42 0 3 12 18
15 26 13 8 1 29 31
37 25 11 34 30 33 24
22 6 49 39 9 41 2
19 46 36 44 28 35 27
14 16 5 45 10 43 4
47 38 23 17 20 7 48
32
